% Instancia problemática tipo: INFACTIBLE_DEMANDA
% Razón: Demanda (267204.0) excede capacidad física máxima teórica
% Demanda total: 267204.0
% Suministro total: 26720.4
% Factor holgura: 0.1

nP = 2;
nT = 3;
nC1 = 4;
nC2 = 6;
nA = 42;
nD = 3;

arc_from = [1, 1, 1, 2, 2, 2, 3, 3, 3, 3, 4, 4, 4, 4, 5, 5, 5, 5, 6, 6, 6, 6, 6, 6, 7, 7, 7, 7, 7, 7, 8, 8, 8, 8, 8, 8, 9, 9, 9, 9, 9, 9];
arc_to = [3, 4, 5, 3, 4, 5, 6, 7, 8, 9, 6, 7, 8, 9, 6, 7, 8, 9, 10, 11, 12, 13, 14, 15, 10, 11, 12, 13, 14, 15, 10, 11, 12, 13, 14, 15, 10, 11, 12, 13, 14, 15];

supply = [13360.20, 13360.20, 0, 0, 0, 0, 0, 0, 0, 0, 0, 0, 0, 0, 0];
demand = [0, 0, 0, 0, 0, 26720.40, 26720.40, 26720.40, 26720.40, 26720.40, 26720.40, 26720.40, 26720.40, 26720.40, 26720.40];

max_capacity = [795, 1414, 3181];

install_cost = array2d(1..nA, 1..nD, [
  20, 24, 32,
  50, 62, 78,
  20, 24, 32,
  50, 62, 78,
  20, 24, 32,
  50, 62, 78,
  20, 24, 32,
  50, 62, 78,
  20, 24, 32,
  50, 62, 78,
  20, 24, 32,
  50, 62, 78,
  20, 24, 32,
  50, 62, 78,
  20, 24, 32,
  50, 62, 78,
  20, 24, 32,
  50, 62, 78,
  20, 24, 32,
  50, 62, 78,
  20, 24, 32,
  50, 62, 78,
  20, 24, 32,
  50, 62, 78,
  20, 24, 32,
  50, 62, 78,
  20, 24, 32,
  50, 62, 78,
  20, 24, 32,
  50, 62, 78,
  20, 24, 32,
  50, 62, 78,
  20, 24, 32,
  50, 62, 78,
  20, 24, 32,
  50, 62, 78,
  20, 24, 32,
  50, 62, 78,
  20, 24, 32,
  50, 62, 78,
  20, 24, 32,
  50, 62, 78
]);

trans_cost = [5.57, 6.49, 10.75, 8.99, 6.41, 9.54, 8.29, 10.91, 5.89, 7.02, 6.82, 3.61, 8.89, 8.78, 8.02, 7.30, 3.75, 6.74, 6.97, 5.59, 7.52, 9.21, 13.66, 8.52, 8.77, 7.78, 2.24, 7.92, 8.18, 15.39, 7.42, 8.90, 7.90, 4.49, 11.43, 10.26, 10.37, 5.27, 12.21, 3.79, 9.76, 14.57];
